(set-logic QF_SLIA)
(set-option :produce-models true)
(declare-const X String)
; (([A-Z]{1,2}[0-9][0-9A-Z]?)\ ([0-9][A-Z]{2}))|(GIR\ 0AA)
(assert (not (str.in_re X (re.union (re.++ (str.to_re " ") ((_ re.loop 1 2) (re.range "A" "Z")) (re.range "0" "9") (re.opt (re.union (re.range "0" "9") (re.range "A" "Z"))) (re.range "0" "9") ((_ re.loop 2 2) (re.range "A" "Z"))) (str.to_re "GIR 0AA\u{0a}")))))
(assert (> (str.len X) 10))
(check-sat)
